0.0	5.0
5.0	10.0
10.0	15.0
15.0	20.0
20.0	25.0
25.0	30.0
30.0	35.0
35.0	40.0
40.0	45.0
45.0	50.0
50.0	55.0
55.0	60.0
60.0	65.0
65.0	70.0
70.0	75.0
75.0	80.0
80.0	85.0
85.0	90.0
90.0	95.0
95.0	100.0
100.0	105.0
105.0	110.0
110.0	115.0
115.0	120.0
120.0	125.0
125.0	155.0
155.0	185.0
185.0	215.0
215.0	245.0
245.0	485.0
485.0	725.0
725.0	965.0
965.0	1205.0
1205.0	1445.0
1445.0	1685.0
1685.0	1925.0
1925.0	2165.0
2165.0	2405.0
2405.0	2645.0
2645.0	2885.0
2885.0	3125.0
3125.0	3365.0
3365.0	3605.0
